data/lp_files/q3/84_2.lp
\ Model foo
\ LP format - for model browsing. Use MPS format to capture full model detail.
Minimize
  z
Subject To
 allocateEach[1]: x[1,1] + x[2,1] + x[3,1] + x[4,1] + x[5,1] = 1
 allocateEach[2]: x[1,2] + x[2,2] + x[3,2] + x[4,2] + x[5,2] = 1
 allocateEach[3]: x[1,3] + x[2,3] + x[3,3] + x[4,3] + x[5,3] = 1
 allocateEach[4]: x[1,4] + x[2,4] + x[3,4] + x[4,4] + x[5,4] = 1
 allocateAllCash: cashProportion[1] + cashProportion[2] + cashProportion[3]
   + cashProportion[4] + cashProportion[5] = 1
 findWorstP[1,2]: z + 0.0810854640791394 cashProportion[1]
   - 0.0810854640791394 cashProportion[2] + 0.00340558949132385 x[1,1]
   + 0.3628304232661224 x[1,2] + 0.2881236823612087 x[1,3]
   + 0.2645548408022055 x[1,4] - 0.00340558949132385 x[2,1]
   - 0.3628304232661224 x[2,2] - 0.2881236823612087 x[2,3]
   - 0.2645548408022055 x[2,4] >= 0
 findWorstP[1,3]: z + 0.0810854640791394 cashProportion[1]
   - 0.0810854640791394 cashProportion[3] + 0.00340558949132385 x[1,1]
   + 0.3628304232661224 x[1,2] + 0.2881236823612087 x[1,3]
   + 0.2645548408022055 x[1,4] - 0.00340558949132385 x[3,1]
   - 0.3628304232661224 x[3,2] - 0.2881236823612087 x[3,3]
   - 0.2645548408022055 x[3,4] >= 0
 findWorstP[1,4]: z + 0.0810854640791394 cashProportion[1]
   - 0.0810854640791394 cashProportion[4] + 0.00340558949132385 x[1,1]
   + 0.3628304232661224 x[1,2] + 0.2881236823612087 x[1,3]
   + 0.2645548408022055 x[1,4] - 0.00340558949132385 x[4,1]
   - 0.3628304232661224 x[4,2] - 0.2881236823612087 x[4,3]
   - 0.2645548408022055 x[4,4] >= 0
 findWorstP[1,5]: z + 0.0810854640791394 cashProportion[1]
   - 0.0810854640791394 cashProportion[5] + 0.00340558949132385 x[1,1]
   + 0.3628304232661224 x[1,2] + 0.2881236823612087 x[1,3]
   + 0.2645548408022055 x[1,4] - 0.00340558949132385 x[5,1]
   - 0.3628304232661224 x[5,2] - 0.2881236823612087 x[5,3]
   - 0.2645548408022055 x[5,4] >= 0
 findWorstP[2,1]: z - 0.0955718381650207 cashProportion[1]
   + 0.0955718381650207 cashProportion[2] - 0.5056387384517361 x[1,1]
   - 0.0609111181905065 x[1,2] - 0.1520229372411596 x[1,3]
   - 0.1858553679515769 x[1,4] + 0.5056387384517361 x[2,1]
   + 0.0609111181905065 x[2,2] + 0.1520229372411596 x[2,3]
   + 0.1858553679515769 x[2,4] >= 0
 findWorstP[2,3]: z + 0.0955718381650207 cashProportion[2]
   - 0.0955718381650207 cashProportion[3] + 0.5056387384517361 x[2,1]
   + 0.0609111181905065 x[2,2] + 0.1520229372411596 x[2,3]
   + 0.1858553679515769 x[2,4] - 0.5056387384517361 x[3,1]
   - 0.0609111181905065 x[3,2] - 0.1520229372411596 x[3,3]
   - 0.1858553679515769 x[3,4] >= 0
 findWorstP[2,4]: z + 0.0955718381650207 cashProportion[2]
   - 0.0955718381650207 cashProportion[4] + 0.5056387384517361 x[2,1]
   + 0.0609111181905065 x[2,2] + 0.1520229372411596 x[2,3]
   + 0.1858553679515769 x[2,4] - 0.5056387384517361 x[4,1]
   - 0.0609111181905065 x[4,2] - 0.1520229372411596 x[4,3]
   - 0.1858553679515769 x[4,4] >= 0
 findWorstP[2,5]: z + 0.0955718381650207 cashProportion[2]
   - 0.0955718381650207 cashProportion[5] + 0.5056387384517361 x[2,1]
   + 0.0609111181905065 x[2,2] + 0.1520229372411596 x[2,3]
   + 0.1858553679515769 x[2,4] - 0.5056387384517361 x[5,1]
   - 0.0609111181905065 x[5,2] - 0.1520229372411596 x[5,3]
   - 0.1858553679515769 x[5,4] >= 0
 findWorstP[3,1]: z - 0.0518546686486674 cashProportion[1]
   + 0.0518546686486674 cashProportion[3] - 0.1633422062433021 x[1,1]
   - 0.2021986379507035 x[1,2] - 0.3312130535485879 x[1,3]
   - 0.2513914336087393 x[1,4] + 0.1633422062433021 x[3,1]
   + 0.2021986379507035 x[3,2] + 0.3312130535485879 x[3,3]
   + 0.2513914336087393 x[3,4] >= 0
 findWorstP[3,2]: z - 0.0518546686486674 cashProportion[2]
   + 0.0518546686486674 cashProportion[3] - 0.1633422062433021 x[2,1]
   - 0.2021986379507035 x[2,2] - 0.3312130535485879 x[2,3]
   - 0.2513914336087393 x[2,4] + 0.1633422062433021 x[3,1]
   + 0.2021986379507035 x[3,2] + 0.3312130535485879 x[3,3]
   + 0.2513914336087393 x[3,4] >= 0
 findWorstP[3,4]: z + 0.0518546686486674 cashProportion[3]
   - 0.0518546686486674 cashProportion[4] + 0.1633422062433021 x[3,1]
   + 0.2021986379507035 x[3,2] + 0.3312130535485879 x[3,3]
   + 0.2513914336087393 x[3,4] - 0.1633422062433021 x[4,1]
   - 0.2021986379507035 x[4,2] - 0.3312130535485879 x[4,3]
   - 0.2513914336087393 x[4,4] >= 0
 findWorstP[3,5]: z + 0.0518546686486674 cashProportion[3]
   - 0.0518546686486674 cashProportion[5] + 0.1633422062433021 x[3,1]
   + 0.2021986379507035 x[3,2] + 0.3312130535485879 x[3,3]
   + 0.2513914336087393 x[3,4] - 0.1633422062433021 x[5,1]
   - 0.2021986379507035 x[5,2] - 0.3312130535485879 x[5,3]
   - 0.2513914336087393 x[5,4] >= 0
 findWorstP[4,1]: z - 0.0688010274286763 cashProportion[1]
   + 0.0688010274286763 cashProportion[4] - 0.3532703421704431 x[1,1]
   - 0.2072745619667921 x[1,2] - 0.1714521603522613 x[1,3]
   - 0.1992019080818274 x[1,4] + 0.3532703421704431 x[4,1]
   + 0.2072745619667921 x[4,2] + 0.1714521603522613 x[4,3]
   + 0.1992019080818274 x[4,4] >= 0
 findWorstP[4,2]: z - 0.0688010274286763 cashProportion[2]
   + 0.0688010274286763 cashProportion[4] - 0.3532703421704431 x[2,1]
   - 0.2072745619667921 x[2,2] - 0.1714521603522613 x[2,3]
   - 0.1992019080818274 x[2,4] + 0.3532703421704431 x[4,1]
   + 0.2072745619667921 x[4,2] + 0.1714521603522613 x[4,3]
   + 0.1992019080818274 x[4,4] >= 0
 findWorstP[4,3]: z - 0.0688010274286763 cashProportion[3]
   + 0.0688010274286763 cashProportion[4] - 0.3532703421704431 x[3,1]
   - 0.2072745619667921 x[3,2] - 0.1714521603522613 x[3,3]
   - 0.1992019080818274 x[3,4] + 0.3532703421704431 x[4,1]
   + 0.2072745619667921 x[4,2] + 0.1714521603522613 x[4,3]
   + 0.1992019080818274 x[4,4] >= 0
 findWorstP[4,5]: z + 0.0688010274286763 cashProportion[4]
   - 0.0688010274286763 cashProportion[5] + 0.3532703421704431 x[4,1]
   + 0.2072745619667921 x[4,2] + 0.1714521603522613 x[4,3]
   + 0.1992019080818274 x[4,4] - 0.3532703421704431 x[5,1]
   - 0.2072745619667921 x[5,2] - 0.1714521603522613 x[5,3]
   - 0.1992019080818274 x[5,4] >= 0
 findWorstP[5,1]: z - 0.0704754745348619 cashProportion[1]
   + 0.0704754745348619 cashProportion[5] - 0.1340443525653073 x[1,1]
   - 0.4390622063521894 x[1,2] - 0.1350779928584852 x[1,3]
   - 0.2213399736891562 x[1,4] + 0.1340443525653073 x[5,1]
   + 0.4390622063521894 x[5,2] + 0.1350779928584852 x[5,3]
   + 0.2213399736891562 x[5,4] >= 0
 findWorstP[5,2]: z - 0.0704754745348619 cashProportion[2]
   + 0.0704754745348619 cashProportion[5] - 0.1340443525653073 x[2,1]
   - 0.4390622063521894 x[2,2] - 0.1350779928584852 x[2,3]
   - 0.2213399736891562 x[2,4] + 0.1340443525653073 x[5,1]
   + 0.4390622063521894 x[5,2] + 0.1350779928584852 x[5,3]
   + 0.2213399736891562 x[5,4] >= 0
 findWorstP[5,3]: z - 0.0704754745348619 cashProportion[3]
   + 0.0704754745348619 cashProportion[5] - 0.1340443525653073 x[3,1]
   - 0.4390622063521894 x[3,2] - 0.1350779928584852 x[3,3]
   - 0.2213399736891562 x[3,4] + 0.1340443525653073 x[5,1]
   + 0.4390622063521894 x[5,2] + 0.1350779928584852 x[5,3]
   + 0.2213399736891562 x[5,4] >= 0
 findWorstP[5,4]: z - 0.0704754745348619 cashProportion[4]
   + 0.0704754745348619 cashProportion[5] - 0.1340443525653073 x[4,1]
   - 0.4390622063521894 x[4,2] - 0.1350779928584852 x[4,3]
   - 0.2213399736891562 x[4,4] + 0.1340443525653073 x[5,1]
   + 0.4390622063521894 x[5,2] + 0.1350779928584852 x[5,3]
   + 0.2213399736891562 x[5,4] >= 0
Bounds
 z <= 1
 -infinity <= cashProportion[1] <= 1
 -infinity <= cashProportion[2] <= 1
 -infinity <= cashProportion[3] <= 1
 -infinity <= cashProportion[4] <= 1
 -infinity <= cashProportion[5] <= 1
Binaries
 x[1,1] x[1,2] x[1,3] x[1,4] x[2,1] x[2,2] x[2,3] x[2,4] x[3,1] x[3,2]
 x[3,3] x[3,4] x[4,1] x[4,2] x[4,3] x[4,4] x[5,1] x[5,2] x[5,3] x[5,4]
End
