data/mps_files/pEFS/84_2.mps
NAME foo
ROWS
 N  OBJ
 E  allocateEach[1]
 E  allocateEach[2]
 E  allocateEach[3]
 E  allocateEach[4]
 E  allocateAllCash
 G  findWorstP[1,2]
 G  findWorstP[1,3]
 G  findWorstP[1,4]
 G  findWorstP[1,5]
 G  findWorstP[2,1]
 G  findWorstP[2,3]
 G  findWorstP[2,4]
 G  findWorstP[2,5]
 G  findWorstP[3,1]
 G  findWorstP[3,2]
 G  findWorstP[3,4]
 G  findWorstP[3,5]
 G  findWorstP[4,1]
 G  findWorstP[4,2]
 G  findWorstP[4,3]
 G  findWorstP[4,5]
 G  findWorstP[5,1]
 G  findWorstP[5,2]
 G  findWorstP[5,3]
 G  findWorstP[5,4]
COLUMNS
    z         OBJ       1
    z         findWorstP[1,2]  1
    z         findWorstP[1,3]  1
    z         findWorstP[1,4]  1
    z         findWorstP[1,5]  1
    z         findWorstP[2,1]  1
    z         findWorstP[2,3]  1
    z         findWorstP[2,4]  1
    z         findWorstP[2,5]  1
    z         findWorstP[3,1]  1
    z         findWorstP[3,2]  1
    z         findWorstP[3,4]  1
    z         findWorstP[3,5]  1
    z         findWorstP[4,1]  1
    z         findWorstP[4,2]  1
    z         findWorstP[4,3]  1
    z         findWorstP[4,5]  1
    z         findWorstP[5,1]  1
    z         findWorstP[5,2]  1
    z         findWorstP[5,3]  1
    z         findWorstP[5,4]  1
    cashProportion[1]  allocateAllCash  1
    cashProportion[1]  findWorstP[1,2]  8.1085464079139413e-02
    cashProportion[1]  findWorstP[1,3]  8.1085464079139413e-02
    cashProportion[1]  findWorstP[1,4]  8.1085464079139413e-02
    cashProportion[1]  findWorstP[1,5]  8.1085464079139413e-02
    cashProportion[1]  findWorstP[2,1]  -9.5571838165020712e-02
    cashProportion[1]  findWorstP[3,1]  -5.1854668648667356e-02
    cashProportion[1]  findWorstP[4,1]  -6.8801027428676290e-02
    cashProportion[1]  findWorstP[5,1]  -7.0475474534861873e-02
    cashProportion[2]  allocateAllCash  1
    cashProportion[2]  findWorstP[1,2]  -8.1085464079139413e-02
    cashProportion[2]  findWorstP[2,1]  9.5571838165020712e-02
    cashProportion[2]  findWorstP[2,3]  9.5571838165020712e-02
    cashProportion[2]  findWorstP[2,4]  9.5571838165020712e-02
    cashProportion[2]  findWorstP[2,5]  9.5571838165020712e-02
    cashProportion[2]  findWorstP[3,2]  -5.1854668648667356e-02
    cashProportion[2]  findWorstP[4,2]  -6.8801027428676290e-02
    cashProportion[2]  findWorstP[5,2]  -7.0475474534861873e-02
    cashProportion[3]  allocateAllCash  1
    cashProportion[3]  findWorstP[1,3]  -8.1085464079139413e-02
    cashProportion[3]  findWorstP[2,3]  -9.5571838165020712e-02
    cashProportion[3]  findWorstP[3,1]  5.1854668648667356e-02
    cashProportion[3]  findWorstP[3,2]  5.1854668648667356e-02
    cashProportion[3]  findWorstP[3,4]  5.1854668648667356e-02
    cashProportion[3]  findWorstP[3,5]  5.1854668648667356e-02
    cashProportion[3]  findWorstP[4,3]  -6.8801027428676290e-02
    cashProportion[3]  findWorstP[5,3]  -7.0475474534861873e-02
    cashProportion[4]  allocateAllCash  1
    cashProportion[4]  findWorstP[1,4]  -8.1085464079139413e-02
    cashProportion[4]  findWorstP[2,4]  -9.5571838165020712e-02
    cashProportion[4]  findWorstP[3,4]  -5.1854668648667356e-02
    cashProportion[4]  findWorstP[4,1]  6.8801027428676290e-02
    cashProportion[4]  findWorstP[4,2]  6.8801027428676290e-02
    cashProportion[4]  findWorstP[4,3]  6.8801027428676290e-02
    cashProportion[4]  findWorstP[4,5]  6.8801027428676290e-02
    cashProportion[4]  findWorstP[5,4]  -7.0475474534861873e-02
    cashProportion[5]  allocateAllCash  1
    cashProportion[5]  findWorstP[1,5]  -8.1085464079139413e-02
    cashProportion[5]  findWorstP[2,5]  -9.5571838165020712e-02
    cashProportion[5]  findWorstP[3,5]  -5.1854668648667356e-02
    cashProportion[5]  findWorstP[4,5]  -6.8801027428676290e-02
    cashProportion[5]  findWorstP[5,1]  7.0475474534861873e-02
    cashProportion[5]  findWorstP[5,2]  7.0475474534861873e-02
    cashProportion[5]  findWorstP[5,3]  7.0475474534861873e-02
    cashProportion[5]  findWorstP[5,4]  7.0475474534861873e-02
    MARKER    'MARKER'                 'INTORG'
    x[1,1]    allocateEach[1]  1
    x[1,1]    findWorstP[1,2]  3.4055894913238545e-03
    x[1,1]    findWorstP[1,3]  3.4055894913238545e-03
    x[1,1]    findWorstP[1,4]  3.4055894913238545e-03
    x[1,1]    findWorstP[1,5]  3.4055894913238545e-03
    x[1,1]    findWorstP[2,1]  -5.0563873845173612e-01
    x[1,1]    findWorstP[3,1]  -1.6334220624330212e-01
    x[1,1]    findWorstP[4,1]  -3.5327034217044312e-01
    x[1,1]    findWorstP[5,1]  -1.3404435256530725e-01
    x[1,2]    allocateEach[2]  1
    x[1,2]    findWorstP[1,2]  3.6283042326612241e-01
    x[1,2]    findWorstP[1,3]  3.6283042326612241e-01
    x[1,2]    findWorstP[1,4]  3.6283042326612241e-01
    x[1,2]    findWorstP[1,5]  3.6283042326612241e-01
    x[1,2]    findWorstP[2,1]  -6.0911118190506527e-02
    x[1,2]    findWorstP[3,1]  -2.0219863795070353e-01
    x[1,2]    findWorstP[4,1]  -2.0727456196679209e-01
    x[1,2]    findWorstP[5,1]  -4.3906220635218940e-01
    x[1,3]    allocateEach[3]  1
    x[1,3]    findWorstP[1,2]  2.8812368236120867e-01
    x[1,3]    findWorstP[1,3]  2.8812368236120867e-01
    x[1,3]    findWorstP[1,4]  2.8812368236120867e-01
    x[1,3]    findWorstP[1,5]  2.8812368236120867e-01
    x[1,3]    findWorstP[2,1]  -1.5202293724115959e-01
    x[1,3]    findWorstP[3,1]  -3.3121305354858788e-01
    x[1,3]    findWorstP[4,1]  -1.7145216035226130e-01
    x[1,3]    findWorstP[5,1]  -1.3507799285848524e-01
    x[1,4]    allocateEach[4]  1
    x[1,4]    findWorstP[1,2]  2.6455484080220548e-01
    x[1,4]    findWorstP[1,3]  2.6455484080220548e-01
    x[1,4]    findWorstP[1,4]  2.6455484080220548e-01
    x[1,4]    findWorstP[1,5]  2.6455484080220548e-01
    x[1,4]    findWorstP[2,1]  -1.8585536795157692e-01
    x[1,4]    findWorstP[3,1]  -2.5139143360873928e-01
    x[1,4]    findWorstP[4,1]  -1.9920190808182739e-01
    x[1,4]    findWorstP[5,1]  -2.2133997368915617e-01
    x[2,1]    allocateEach[1]  1
    x[2,1]    findWorstP[1,2]  -3.4055894913238545e-03
    x[2,1]    findWorstP[2,1]  5.0563873845173612e-01
    x[2,1]    findWorstP[2,3]  5.0563873845173612e-01
    x[2,1]    findWorstP[2,4]  5.0563873845173612e-01
    x[2,1]    findWorstP[2,5]  5.0563873845173612e-01
    x[2,1]    findWorstP[3,2]  -1.6334220624330212e-01
    x[2,1]    findWorstP[4,2]  -3.5327034217044312e-01
    x[2,1]    findWorstP[5,2]  -1.3404435256530725e-01
    x[2,2]    allocateEach[2]  1
    x[2,2]    findWorstP[1,2]  -3.6283042326612241e-01
    x[2,2]    findWorstP[2,1]  6.0911118190506527e-02
    x[2,2]    findWorstP[2,3]  6.0911118190506527e-02
    x[2,2]    findWorstP[2,4]  6.0911118190506527e-02
    x[2,2]    findWorstP[2,5]  6.0911118190506527e-02
    x[2,2]    findWorstP[3,2]  -2.0219863795070353e-01
    x[2,2]    findWorstP[4,2]  -2.0727456196679209e-01
    x[2,2]    findWorstP[5,2]  -4.3906220635218940e-01
    x[2,3]    allocateEach[3]  1
    x[2,3]    findWorstP[1,2]  -2.8812368236120867e-01
    x[2,3]    findWorstP[2,1]  1.5202293724115959e-01
    x[2,3]    findWorstP[2,3]  1.5202293724115959e-01
    x[2,3]    findWorstP[2,4]  1.5202293724115959e-01
    x[2,3]    findWorstP[2,5]  1.5202293724115959e-01
    x[2,3]    findWorstP[3,2]  -3.3121305354858788e-01
    x[2,3]    findWorstP[4,2]  -1.7145216035226130e-01
    x[2,3]    findWorstP[5,2]  -1.3507799285848524e-01
    x[2,4]    allocateEach[4]  1
    x[2,4]    findWorstP[1,2]  -2.6455484080220548e-01
    x[2,4]    findWorstP[2,1]  1.8585536795157692e-01
    x[2,4]    findWorstP[2,3]  1.8585536795157692e-01
    x[2,4]    findWorstP[2,4]  1.8585536795157692e-01
    x[2,4]    findWorstP[2,5]  1.8585536795157692e-01
    x[2,4]    findWorstP[3,2]  -2.5139143360873928e-01
    x[2,4]    findWorstP[4,2]  -1.9920190808182739e-01
    x[2,4]    findWorstP[5,2]  -2.2133997368915617e-01
    x[3,1]    allocateEach[1]  1
    x[3,1]    findWorstP[1,3]  -3.4055894913238545e-03
    x[3,1]    findWorstP[2,3]  -5.0563873845173612e-01
    x[3,1]    findWorstP[3,1]  1.6334220624330212e-01
    x[3,1]    findWorstP[3,2]  1.6334220624330212e-01
    x[3,1]    findWorstP[3,4]  1.6334220624330212e-01
    x[3,1]    findWorstP[3,5]  1.6334220624330212e-01
    x[3,1]    findWorstP[4,3]  -3.5327034217044312e-01
    x[3,1]    findWorstP[5,3]  -1.3404435256530725e-01
    x[3,2]    allocateEach[2]  1
    x[3,2]    findWorstP[1,3]  -3.6283042326612241e-01
    x[3,2]    findWorstP[2,3]  -6.0911118190506527e-02
    x[3,2]    findWorstP[3,1]  2.0219863795070353e-01
    x[3,2]    findWorstP[3,2]  2.0219863795070353e-01
    x[3,2]    findWorstP[3,4]  2.0219863795070353e-01
    x[3,2]    findWorstP[3,5]  2.0219863795070353e-01
    x[3,2]    findWorstP[4,3]  -2.0727456196679209e-01
    x[3,2]    findWorstP[5,3]  -4.3906220635218940e-01
    x[3,3]    allocateEach[3]  1
    x[3,3]    findWorstP[1,3]  -2.8812368236120867e-01
    x[3,3]    findWorstP[2,3]  -1.5202293724115959e-01
    x[3,3]    findWorstP[3,1]  3.3121305354858788e-01
    x[3,3]    findWorstP[3,2]  3.3121305354858788e-01
    x[3,3]    findWorstP[3,4]  3.3121305354858788e-01
    x[3,3]    findWorstP[3,5]  3.3121305354858788e-01
    x[3,3]    findWorstP[4,3]  -1.7145216035226130e-01
    x[3,3]    findWorstP[5,3]  -1.3507799285848524e-01
    x[3,4]    allocateEach[4]  1
    x[3,4]    findWorstP[1,3]  -2.6455484080220548e-01
    x[3,4]    findWorstP[2,3]  -1.8585536795157692e-01
    x[3,4]    findWorstP[3,1]  2.5139143360873928e-01
    x[3,4]    findWorstP[3,2]  2.5139143360873928e-01
    x[3,4]    findWorstP[3,4]  2.5139143360873928e-01
    x[3,4]    findWorstP[3,5]  2.5139143360873928e-01
    x[3,4]    findWorstP[4,3]  -1.9920190808182739e-01
    x[3,4]    findWorstP[5,3]  -2.2133997368915617e-01
    x[4,1]    allocateEach[1]  1
    x[4,1]    findWorstP[1,4]  -3.4055894913238545e-03
    x[4,1]    findWorstP[2,4]  -5.0563873845173612e-01
    x[4,1]    findWorstP[3,4]  -1.6334220624330212e-01
    x[4,1]    findWorstP[4,1]  3.5327034217044312e-01
    x[4,1]    findWorstP[4,2]  3.5327034217044312e-01
    x[4,1]    findWorstP[4,3]  3.5327034217044312e-01
    x[4,1]    findWorstP[4,5]  3.5327034217044312e-01
    x[4,1]    findWorstP[5,4]  -1.3404435256530725e-01
    x[4,2]    allocateEach[2]  1
    x[4,2]    findWorstP[1,4]  -3.6283042326612241e-01
    x[4,2]    findWorstP[2,4]  -6.0911118190506527e-02
    x[4,2]    findWorstP[3,4]  -2.0219863795070353e-01
    x[4,2]    findWorstP[4,1]  2.0727456196679209e-01
    x[4,2]    findWorstP[4,2]  2.0727456196679209e-01
    x[4,2]    findWorstP[4,3]  2.0727456196679209e-01
    x[4,2]    findWorstP[4,5]  2.0727456196679209e-01
    x[4,2]    findWorstP[5,4]  -4.3906220635218940e-01
    x[4,3]    allocateEach[3]  1
    x[4,3]    findWorstP[1,4]  -2.8812368236120867e-01
    x[4,3]    findWorstP[2,4]  -1.5202293724115959e-01
    x[4,3]    findWorstP[3,4]  -3.3121305354858788e-01
    x[4,3]    findWorstP[4,1]  1.7145216035226130e-01
    x[4,3]    findWorstP[4,2]  1.7145216035226130e-01
    x[4,3]    findWorstP[4,3]  1.7145216035226130e-01
    x[4,3]    findWorstP[4,5]  1.7145216035226130e-01
    x[4,3]    findWorstP[5,4]  -1.3507799285848524e-01
    x[4,4]    allocateEach[4]  1
    x[4,4]    findWorstP[1,4]  -2.6455484080220548e-01
    x[4,4]    findWorstP[2,4]  -1.8585536795157692e-01
    x[4,4]    findWorstP[3,4]  -2.5139143360873928e-01
    x[4,4]    findWorstP[4,1]  1.9920190808182739e-01
    x[4,4]    findWorstP[4,2]  1.9920190808182739e-01
    x[4,4]    findWorstP[4,3]  1.9920190808182739e-01
    x[4,4]    findWorstP[4,5]  1.9920190808182739e-01
    x[4,4]    findWorstP[5,4]  -2.2133997368915617e-01
    x[5,1]    allocateEach[1]  1
    x[5,1]    findWorstP[1,5]  -3.4055894913238545e-03
    x[5,1]    findWorstP[2,5]  -5.0563873845173612e-01
    x[5,1]    findWorstP[3,5]  -1.6334220624330212e-01
    x[5,1]    findWorstP[4,5]  -3.5327034217044312e-01
    x[5,1]    findWorstP[5,1]  1.3404435256530725e-01
    x[5,1]    findWorstP[5,2]  1.3404435256530725e-01
    x[5,1]    findWorstP[5,3]  1.3404435256530725e-01
    x[5,1]    findWorstP[5,4]  1.3404435256530725e-01
    x[5,2]    allocateEach[2]  1
    x[5,2]    findWorstP[1,5]  -3.6283042326612241e-01
    x[5,2]    findWorstP[2,5]  -6.0911118190506527e-02
    x[5,2]    findWorstP[3,5]  -2.0219863795070353e-01
    x[5,2]    findWorstP[4,5]  -2.0727456196679209e-01
    x[5,2]    findWorstP[5,1]  4.3906220635218940e-01
    x[5,2]    findWorstP[5,2]  4.3906220635218940e-01
    x[5,2]    findWorstP[5,3]  4.3906220635218940e-01
    x[5,2]    findWorstP[5,4]  4.3906220635218940e-01
    x[5,3]    allocateEach[3]  1
    x[5,3]    findWorstP[1,5]  -2.8812368236120867e-01
    x[5,3]    findWorstP[2,5]  -1.5202293724115959e-01
    x[5,3]    findWorstP[3,5]  -3.3121305354858788e-01
    x[5,3]    findWorstP[4,5]  -1.7145216035226130e-01
    x[5,3]    findWorstP[5,1]  1.3507799285848524e-01
    x[5,3]    findWorstP[5,2]  1.3507799285848524e-01
    x[5,3]    findWorstP[5,3]  1.3507799285848524e-01
    x[5,3]    findWorstP[5,4]  1.3507799285848524e-01
    x[5,4]    allocateEach[4]  1
    x[5,4]    findWorstP[1,5]  -2.6455484080220548e-01
    x[5,4]    findWorstP[2,5]  -1.8585536795157692e-01
    x[5,4]    findWorstP[3,5]  -2.5139143360873928e-01
    x[5,4]    findWorstP[4,5]  -1.9920190808182739e-01
    x[5,4]    findWorstP[5,1]  2.2133997368915617e-01
    x[5,4]    findWorstP[5,2]  2.2133997368915617e-01
    x[5,4]    findWorstP[5,3]  2.2133997368915617e-01
    x[5,4]    findWorstP[5,4]  2.2133997368915617e-01
    MARKER    'MARKER'                 'INTEND'
RHS
    RHS1      allocateEach[1]  1
    RHS1      allocateEach[2]  1
    RHS1      allocateEach[3]  1
    RHS1      allocateEach[4]  1
    RHS1      allocateAllCash  1
BOUNDS
 UP BND1      z         1
 MI BND1      cashProportion[1]
 UP BND1      cashProportion[1]  1
 MI BND1      cashProportion[2]
 UP BND1      cashProportion[2]  1
 MI BND1      cashProportion[3]
 UP BND1      cashProportion[3]  1
 MI BND1      cashProportion[4]
 UP BND1      cashProportion[4]  1
 MI BND1      cashProportion[5]
 UP BND1      cashProportion[5]  1
 BV BND1      x[1,1]  
 BV BND1      x[1,2]  
 BV BND1      x[1,3]  
 BV BND1      x[1,4]  
 BV BND1      x[2,1]  
 BV BND1      x[2,2]  
 BV BND1      x[2,3]  
 BV BND1      x[2,4]  
 BV BND1      x[3,1]  
 BV BND1      x[3,2]  
 BV BND1      x[3,3]  
 BV BND1      x[3,4]  
 BV BND1      x[4,1]  
 BV BND1      x[4,2]  
 BV BND1      x[4,3]  
 BV BND1      x[4,4]  
 BV BND1      x[5,1]  
 BV BND1      x[5,2]  
 BV BND1      x[5,3]  
 BV BND1      x[5,4]  
ENDATA
